Minimize
     2 xl +  4 xc +  1.5 xp +    xs
Subject to
     2 xl +  2 xc + 10   xp + 20 xs >=  11
    50 xl + 20 xc + 10   xp + 30 xs >=  70
    80 xl + 70 xc + 10   xp + 80 xs >= 250
Bounds
    xl >= 0
    xc >= 0
    xp >= 0
    xs >= 0
End
